c Created with the Wolfram Language : www.wolfram.com
c 
p edge 100 238
e 1 2
e 3 6
e 2 10
e 8 10
e 9 11
e 2 14
e 2 17
e 3 17
e 12 17
e 17 18
e 2 19
e 4 20
e 11 23
e 13 23
e 8 24
e 7 26
e 19 26
e 7 28
e 13 28
e 15 28
e 28 29
e 19 30
e 3 31
e 4 31
e 17 32
e 25 34
e 1 35
e 17 35
e 17 36
e 21 36
e 24 36
e 6 37
e 19 38
e 15 39
e 16 39
e 28 39
e 30 39
e 31 39
e 22 41
e 37 41
e 38 41
e 11 42
e 34 42
e 7 43
e 36 43
e 23 44
e 4 45
e 6 45
e 7 45
e 33 45
e 27 47
e 8 49
e 31 49
e 36 49
e 8 50
e 14 50
e 17 51
e 9 52
e 14 52
e 42 52
e 2 53
e 4 53
e 31 53
e 16 54
e 21 54
e 37 54
e 1 55
e 32 55
e 55 56
e 27 57
e 45 57
e 17 58
e 34 58
e 35 58
e 51 58
e 54 58
e 44 60
e 51 60
e 49 61
e 25 62
e 31 62
e 45 62
e 51 62
e 58 62
e 16 63
e 47 63
e 5 64
e 8 64
e 32 64
e 58 64
e 5 65
e 6 65
e 35 65
e 57 65
e 48 66
e 49 66
e 58 66
e 65 66
e 56 67
e 11 68
e 55 68
e 66 68
e 67 68
e 14 69
e 22 69
e 33 69
e 42 69
e 48 69
e 38 70
e 39 70
e 49 70
e 51 70
e 52 70
e 56 70
e 8 71
e 11 71
e 16 71
e 66 71
e 8 72
e 26 72
e 26 73
e 27 73
e 36 73
e 13 74
e 20 74
e 41 74
e 46 74
e 54 74
e 67 74
e 18 75
e 31 75
e 35 75
e 64 75
e 14 76
e 7 77
e 44 77
e 45 77
e 54 77
e 73 77
e 76 77
e 13 78
e 63 78
e 2 79
e 9 79
e 25 79
e 44 79
e 45 79
e 57 79
e 68 79
e 76 79
e 46 80
e 4 81
e 8 81
e 74 81
e 49 82
e 55 82
e 73 82
e 9 83
e 15 83
e 20 83
e 26 83
e 32 83
e 37 83
e 48 83
e 75 83
e 78 83
e 81 83
e 36 84
e 50 84
e 63 84
e 72 84
e 11 85
e 25 85
e 26 85
e 42 85
e 58 85
e 60 85
e 64 85
e 37 86
e 48 86
e 65 86
e 54 87
e 74 87
e 82 87
e 12 88
e 13 88
e 27 88
e 48 88
e 80 88
e 19 89
e 22 89
e 56 90
e 11 91
e 3 92
e 22 92
e 32 92
e 42 92
e 45 92
e 66 92
e 86 92
e 14 93
e 29 93
e 31 93
e 51 93
e 54 93
e 80 93
e 15 94
e 42 94
e 44 94
e 49 94
e 59 94
e 91 94
e 51 95
e 56 95
e 83 95
e 94 95
e 16 96
e 23 96
e 27 96
e 36 96
e 40 96
e 92 96
e 9 97
e 23 97
e 56 97
e 64 97
e 76 97
e 2 98
e 8 98
e 64 98
e 17 99
e 40 99
e 49 99
e 63 99
e 86 99
e 38 100
e 41 100
e 61 100
